50
1185
8 12 11 47 22 95 86 40 33 78 28 78 5 75 88 21 56 82 51 93 66 48 70 57 65 35 5 4 47 60 41 49 55 68 22 72 23 31 30 4 23 42 23 18 66 66 47 66 87 72
24 58 54 95 68 98 47 76 46 47 58 21 97 52 92 95 60 84 68 32 63 36 64 65 66 46 85 59 60 45 73 93 72 93 59 63 85 29 42 90 22 79 35 99 62 40 39 91 65 72
